experiment/data/lkh-res/Vrp-Set-X-n280/Vrp-Set-X-n280-lkh/0.lkh1.vrp
NAME : 0
COMMENT : CVRP Instance
TYPE : CVRP
DIMENSION : 280
EDGE_WEIGHT_TYPE : EUC_2D
CAPACITY : 192
NODE_COORD_SECTION
1	0	0
2	90900	91900
3	87800	72100
4	96900	8500
5	59100	19500
6	95500	14800
7	58700	90300
8	99400	79200
9	62500	12900
10	54400	70300
11	46100	16700
12	3700	64400
13	61500	2200
14	77300	78800
15	38400	36400
16	5100	29100
17	10900	73200
18	57000	12400
19	69200	98500
20	6200	15000
21	35800	500
22	18800	45000
23	67400	65800
24	67600	90400
25	81500	98400
26	71000	1600
27	7400	65800
28	57600	100000
29	63600	69500
30	54700	9200
31	58700	39700
32	2600	15000
33	18200	56100
34	93800	46200
35	36200	92800
36	36600	83500
37	51600	89200
38	44800	92300
39	50100	44500
40	51300	79900
41	90500	38800
42	47400	79100
43	56000	78200
44	46500	55200
45	31500	64500
46	73800	39600
47	4500	91500
48	79700	87100
49	92200	64300
50	79300	58600
51	92100	45800
52	16000	29500
53	59800	25700
54	51600	22100
55	9900	16900
56	78800	63400
57	42500	75100
58	61600	68000
59	94900	44400
60	98700	45900
61	18200	27900
62	12700	35400
63	79100	82200
64	64500	60900
65	85700	38600
66	91700	15400
67	39800	48000
68	72900	68800
69	13400	51000
70	17200	200
71	49900	73700
72	78000	56500
73	90800	47700
74	91700	34100
75	27200	55300
76	42100	87600
77	77000	200
78	49700	62300
79	85300	2700
80	85300	52100
81	51900	19600
82	9000	82200
83	82700	90100
84	35000	16800
85	65600	5600
86	19900	92400
87	73200	5500
88	77200	74800
89	88400	97300
90	15800	43000
91	56300	1300
92	5000	95900
93	60900	22300
94	62800	86000
95	26400	43600
96	69900	76400
97	44100	47900
98	9500	24600
99	23600	62700
100	30700	89300
101	69500	30200
102	37800	63900
103	83000	3000
104	4400	33900
105	88500	64400
106	12200	60300
107	85000	73200
108	15500	86500
109	23000	34600
110	30000	71900
111	5500	95400
112	46700	49400
113	15300	64100
114	71300	8200
115	65900	56400
116	88100	1800
117	78100	65400
118	49000	80600
119	82300	56900
120	87800	49600
121	44100	89800
122	58900	51600
123	16500	61400
124	1700	74900
125	16400	77800
126	29600	85800
127	25800	48800
128	43700	86600
129	18700	8800
130	72500	98800
131	12500	61900
132	35200	70100
133	44700	51700
134	31600	8000
135	74300	57500
136	55500	37300
137	8400	14000
138	34100	82700
139	54100	56700
140	91900	76800
141	94500	92400
142	39700	93200
143	90500	94400
144	89200	3700
145	7400	22700
146	91100	61700
147	66800	69700
148	100	9600
149	22300	29900
150	63700	11800
151	62200	95800
152	35600	12700
153	34700	77700
154	15700	19000
155	800	49700
156	13800	7800
157	10000	19200
158	38400	59800
159	2300	22800
160	11000	16300
161	34500	46400
162	5300	62800
163	31600	70500
164	11200	36100
165	64200	40500
166	23500	57800
167	48900	62100
168	56300	91600
169	75900	21500
170	82200	26200
171	59700	31000
172	96000	83700
173	16400	98800
174	3700	51300
175	64800	24700
176	37500	40200
177	53100	20500
178	93500	67600
179	10300	54900
180	96400	65100
181	23300	24100
182	89100	11200
183	37800	47200
184	45700	89300
185	85200	86100
186	11300	70100
187	34000	91300
188	66200	19800
189	66700	71800
190	14000	33200
191	80900	90800
192	96800	90800
193	16300	85700
194	33300	41800
195	5900	13600
196	83900	12300
197	52900	21500
198	38500	38000
199	31900	41700
200	31800	21600
201	15600	11900
202	81600	16000
203	26700	21000
204	52800	32000
205	13800	78700
206	47300	71300
207	53700	11400
208	16800	83800
209	77400	82500
210	3200	51000
211	21600	37200
212	1600	93500
213	6000	73300
214	50000	3700
215	34300	36300
216	42900	4100
217	20500	39800
218	70800	29800
219	41100	10900
220	84000	35900
221	11200	60300
222	81600	31000
223	86500	77500
224	25900	34800
225	89300	51600
226	81400	60700
227	60500	16200
228	78100	23900
229	35900	19900
230	1600	73900
231	48200	21400
232	7000	52600
233	52800	10300
234	57200	77000
235	80200	51700
236	87600	46900
237	11800	57100
238	95200	78100
239	82300	79500
240	52200	59500
241	5200	33600
242	45600	36700
243	25500	41300
244	41000	19400
245	95600	2100
246	71700	14200
247	76600	88000
248	52400	82500
249	65700	64000
250	18900	23200
251	47100	33900
252	92000	80900
253	68800	9800
254	66000	78100
255	44100	8100
256	23600	73500
257	78400	69200
258	74300	44600
259	20100	3200
260	18800	95700
261	38100	60500
262	38000	90400
263	22700	26300
264	6900	9400
265	12300	41600
266	34100	34100
267	45000	48200
268	25100	53300
269	35200	59100
270	72400	96700
271	75300	53900
272	68400	92400
273	61700	98900
274	45500	50000
275	47200	92600
276	39500	68300
277	16700	35700
278	78900	67800
279	89700	27200
280	99100	49200
DEMAND_SECTION
1	0
2	92
3	88
4	93
5	90
6	73
7	100
8	53
9	66
10	82
11	59
12	100
13	76
14	84
15	56
16	91
17	58
18	65
19	56
20	68
21	88
22	54
23	76
24	80
25	53
26	1
27	2
28	2
29	7
30	10
31	9
32	8
33	3
34	3
35	2
36	9
37	6
38	10
39	3
40	1
41	4
42	6
43	1
44	4
45	3
46	7
47	7
48	2
49	1
50	1
51	4
52	4
53	5
54	4
55	7
56	3
57	3
58	8
59	6
60	4
61	4
62	2
63	1
64	7
65	5
66	1
67	6
68	8
69	4
70	8
71	7
72	2
73	1
74	9
75	4
76	3
77	3
78	9
79	8
80	5
81	9
82	9
83	4
84	9
85	8
86	6
87	8
88	7
89	9
90	3
91	1
92	8
93	1
94	2
95	4
96	3
97	3
98	7
99	4
100	6
101	6
102	2
103	6
104	7
105	8
106	6
107	3
108	10
109	9
110	5
111	7
112	10
113	10
114	10
115	3
116	10
117	10
118	1
119	9
120	2
121	10
122	1
123	8
124	7
125	10
126	2
127	2
128	7
129	10
130	2
131	8
132	8
133	2
134	5
135	3
136	10
137	7
138	1
139	2
140	9
141	4
142	8
143	6
144	1
145	6
146	7
147	4
148	10
149	4
150	10
151	5
152	10
153	9
154	2
155	1
156	3
157	3
158	6
159	6
160	2
161	9
162	9
163	10
164	4
165	7
166	9
167	10
168	2
169	10
170	6
171	2
172	10
173	10
174	10
175	9
176	9
177	10
178	3
179	10
180	1
181	2
182	7
183	6
184	4
185	9
186	9
187	1
188	9
189	4
190	4
191	10
192	1
193	1
194	1
195	3
196	9
197	1
198	7
199	9
200	6
201	10
202	4
203	6
204	8
205	9
206	3
207	7
208	7
209	4
210	9
211	3
212	7
213	7
214	4
215	6
216	6
217	3
218	6
219	2
220	7
221	5
222	1
223	5
224	6
225	10
226	10
227	9
228	4
229	9
230	1
231	3
232	4
233	9
234	7
235	6
236	5
237	4
238	1
239	3
240	7
241	10
242	8
243	6
244	9
245	10
246	3
247	8
248	8
249	2
250	4
251	5
252	10
253	8
254	8
255	5
256	10
257	7
258	8
259	1
260	2
261	2
262	3
263	5
264	9
265	1
266	8
267	5
268	2
269	8
270	6
271	9
272	3
273	2
274	3
275	1
276	10
277	6
278	7
279	3
280	4
DEPOT_SECTION
1
-1
EOF
