experiment/data/lkh-res/Vrp-Set-X-n280/Vrp-Set-X-n280-lkh/0.lkh1.log
PARAMETER_FILE = baseline_results/cvrp_lkh/Vrp-Set-X-n280/Vrp-Set-X-n280-lkh/0.lkh1.par
Reading PROBLEM_FILE: "baseline_results/cvrp_lkh/Vrp-Set-X-n280/Vrp-Set-X-n280-lkh/0.lkh1.vrp" ... done
ASCENT_CANDIDATES = 50
BACKBONE_TRIALS = 0
BACKTRACKING = NO
# BWTSP =
# CANDIDATE_FILE =
CANDIDATE_SET_TYPE = ALPHA
# DISTANCE =
DEPOT = 1
# EDGE_FILE =
EXCESS = 0.00357143
EXTERNAL_SALESMEN = 0
EXTRA_CANDIDATES = 0 
EXTRA_CANDIDATE_SET_TYPE = QUADRANT
GAIN23 = NO
GAIN_CRITERION = YES
INITIAL_PERIOD = 140
INITIAL_STEP_SIZE = 1
INITIAL_TOUR_ALGORITHM = WALK
# INITIAL_TOUR_FILE = 
INITIAL_TOUR_FRACTION = 1.000
# INPUT_TOUR_FILE = 
KICK_TYPE = 4
KICKS = 1
# MAX_BREADTH =
MAKESPAN = NO
MAX_CANDIDATES = 5 
MAX_SWAPS = 0
MAX_TRIALS = 10000
# MERGE_TOUR_FILE =
MOVE_TYPE = 5 SPECIAL
MTSP_MIN_SIZE = 1
MTSP_MAX_SIZE = 279
# MTSP_SOLUTION_FILE = 
# NONSEQUENTIAL_MOVE_TYPE = 5
# OPTIMUM =
OUTPUT_TOUR_FILE = baseline_results/cvrp_lkh/Vrp-Set-X-n280/Vrp-Set-X-n280-lkh/0.lkh1.tour
PATCHING_A = 1 
PATCHING_C = 0 
# PI_FILE = 
POPMUSIC_INITIAL_TOUR = NO
POPMUSIC_MAX_NEIGHBORS = 5
POPMUSIC_SAMPLE_SIZE = 10
POPMUSIC_SOLUTIONS = 50
POPMUSIC_TRIALS = 1
POPULATION_SIZE = 10
PRECISION = 100
PROBLEM_FILE = baseline_results/cvrp_lkh/Vrp-Set-X-n280/Vrp-Set-X-n280-lkh/0.lkh1.vrp
RECOMBINATION = IPT
RESTRICTED_SEARCH = YES
RUNS = 1
SALESMEN = 17
SCALE = 1
SEED = 1234
# SINTEF_SOLUTION_FILE = 
STOP_AT_OPTIMUM = YES
SUBGRADIENT = YES
# SUBPROBLEM_SIZE =
# SUBPROBLEM_TOUR_FILE = 
SUBSEQUENT_MOVE_TYPE = 5 SPECIAL
SUBSEQUENT_PATCHING = YES
# TIME_LIMIT =
# TOTAL_TIME_LIMIT =
# TOUR_FILE = 
TRACE_LEVEL = 1
VEHICLES = 17

Lower bound = 1792711.9, Ascent time = 0.10 sec.
Cand.min = 2, Cand.avg = 5.0, Cand.max = 5
Preprocessing time = 0.10 sec.
* 1: Cost = 0_3977015, Time = 0.09 sec. 
Writing OUTPUT_TOUR_FILE: "baseline_results/cvrp_lkh/Vrp-Set-X-n280/Vrp-Set-X-n280-lkh/0.lkh1.tour" ... done
* 2: Cost = 0_3908046, Time = 0.10 sec. 
Writing OUTPUT_TOUR_FILE: "baseline_results/cvrp_lkh/Vrp-Set-X-n280/Vrp-Set-X-n280-lkh/0.lkh1.tour" ... done
* 3: Cost = 0_3907251, Time = 0.10 sec. 
Writing OUTPUT_TOUR_FILE: "baseline_results/cvrp_lkh/Vrp-Set-X-n280/Vrp-Set-X-n280-lkh/0.lkh1.tour" ... done
* 6: Cost = 0_3899183, Time = 0.11 sec. 
Writing OUTPUT_TOUR_FILE: "baseline_results/cvrp_lkh/Vrp-Set-X-n280/Vrp-Set-X-n280-lkh/0.lkh1.tour" ... done
* 7: Cost = 0_3869489, Time = 0.11 sec. 
Writing OUTPUT_TOUR_FILE: "baseline_results/cvrp_lkh/Vrp-Set-X-n280/Vrp-Set-X-n280-lkh/0.lkh1.tour" ... done
* 9: Cost = 0_3841182, Time = 0.12 sec. 
Writing OUTPUT_TOUR_FILE: "baseline_results/cvrp_lkh/Vrp-Set-X-n280/Vrp-Set-X-n280-lkh/0.lkh1.tour" ... done
* 13: Cost = 0_3812415, Time = 0.14 sec. 
Writing OUTPUT_TOUR_FILE: "baseline_results/cvrp_lkh/Vrp-Set-X-n280/Vrp-Set-X-n280-lkh/0.lkh1.tour" ... done
* 14: Cost = 0_3800223, Time = 0.16 sec. 
Writing OUTPUT_TOUR_FILE: "baseline_results/cvrp_lkh/Vrp-Set-X-n280/Vrp-Set-X-n280-lkh/0.lkh1.tour" ... done
* 15: Cost = 0_3768539, Time = 0.18 sec. 
Writing OUTPUT_TOUR_FILE: "baseline_results/cvrp_lkh/Vrp-Set-X-n280/Vrp-Set-X-n280-lkh/0.lkh1.tour" ... done
* 18: Cost = 0_3737269, Time = 0.20 sec. 
Writing OUTPUT_TOUR_FILE: "baseline_results/cvrp_lkh/Vrp-Set-X-n280/Vrp-Set-X-n280-lkh/0.lkh1.tour" ... done
* 21: Cost = 0_3709751, Time = 0.22 sec. 
Writing OUTPUT_TOUR_FILE: "baseline_results/cvrp_lkh/Vrp-Set-X-n280/Vrp-Set-X-n280-lkh/0.lkh1.tour" ... done
* 22: Cost = 0_3702048, Time = 0.24 sec. 
Writing OUTPUT_TOUR_FILE: "baseline_results/cvrp_lkh/Vrp-Set-X-n280/Vrp-Set-X-n280-lkh/0.lkh1.tour" ... done
* 23: Cost = 0_3688445, Time = 0.30 sec. 
Writing OUTPUT_TOUR_FILE: "baseline_results/cvrp_lkh/Vrp-Set-X-n280/Vrp-Set-X-n280-lkh/0.lkh1.tour" ... done
* 26: Cost = 0_3666496, Time = 0.43 sec. 
Writing OUTPUT_TOUR_FILE: "baseline_results/cvrp_lkh/Vrp-Set-X-n280/Vrp-Set-X-n280-lkh/0.lkh1.tour" ... done
* 33: Cost = 0_3652602, Time = 0.52 sec. 
Writing OUTPUT_TOUR_FILE: "baseline_results/cvrp_lkh/Vrp-Set-X-n280/Vrp-Set-X-n280-lkh/0.lkh1.tour" ... done
* 36: Cost = 0_3578626, Time = 0.61 sec. 
Writing OUTPUT_TOUR_FILE: "baseline_results/cvrp_lkh/Vrp-Set-X-n280/Vrp-Set-X-n280-lkh/0.lkh1.tour" ... done
* 39: Cost = 0_3577895, Time = 0.66 sec. 
Writing OUTPUT_TOUR_FILE: "baseline_results/cvrp_lkh/Vrp-Set-X-n280/Vrp-Set-X-n280-lkh/0.lkh1.tour" ... done
* 41: Cost = 0_3576194, Time = 0.67 sec. 
Writing OUTPUT_TOUR_FILE: "baseline_results/cvrp_lkh/Vrp-Set-X-n280/Vrp-Set-X-n280-lkh/0.lkh1.tour" ... done
* 44: Cost = 0_3570380, Time = 0.72 sec. 
Writing OUTPUT_TOUR_FILE: "baseline_results/cvrp_lkh/Vrp-Set-X-n280/Vrp-Set-X-n280-lkh/0.lkh1.tour" ... done
* 58: Cost = 0_3566718, Time = 0.95 sec. 
Writing OUTPUT_TOUR_FILE: "baseline_results/cvrp_lkh/Vrp-Set-X-n280/Vrp-Set-X-n280-lkh/0.lkh1.tour" ... done
* 71: Cost = 0_3560837, Time = 1.14 sec. 
Writing OUTPUT_TOUR_FILE: "baseline_results/cvrp_lkh/Vrp-Set-X-n280/Vrp-Set-X-n280-lkh/0.lkh1.tour" ... done
* 76: Cost = 0_3560690, Time = 1.27 sec. 
Writing OUTPUT_TOUR_FILE: "baseline_results/cvrp_lkh/Vrp-Set-X-n280/Vrp-Set-X-n280-lkh/0.lkh1.tour" ... done
* 78: Cost = 0_3560003, Time = 1.28 sec. 
Writing OUTPUT_TOUR_FILE: "baseline_results/cvrp_lkh/Vrp-Set-X-n280/Vrp-Set-X-n280-lkh/0.lkh1.tour" ... done
* 81: Cost = 0_3553437, Time = 1.32 sec. 
Writing OUTPUT_TOUR_FILE: "baseline_results/cvrp_lkh/Vrp-Set-X-n280/Vrp-Set-X-n280-lkh/0.lkh1.tour" ... done
* 91: Cost = 0_3553246, Time = 1.66 sec. 
Writing OUTPUT_TOUR_FILE: "baseline_results/cvrp_lkh/Vrp-Set-X-n280/Vrp-Set-X-n280-lkh/0.lkh1.tour" ... done
* 99: Cost = 0_3529602, Time = 1.81 sec. 
Writing OUTPUT_TOUR_FILE: "baseline_results/cvrp_lkh/Vrp-Set-X-n280/Vrp-Set-X-n280-lkh/0.lkh1.tour" ... done
* 100: Cost = 0_3525228, Time = 1.83 sec. 
Writing OUTPUT_TOUR_FILE: "baseline_results/cvrp_lkh/Vrp-Set-X-n280/Vrp-Set-X-n280-lkh/0.lkh1.tour" ... done
* 107: Cost = 0_3506845, Time = 2.04 sec. 
Writing OUTPUT_TOUR_FILE: "baseline_results/cvrp_lkh/Vrp-Set-X-n280/Vrp-Set-X-n280-lkh/0.lkh1.tour" ... done
* 109: Cost = 0_3498602, Time = 2.10 sec. 
Writing OUTPUT_TOUR_FILE: "baseline_results/cvrp_lkh/Vrp-Set-X-n280/Vrp-Set-X-n280-lkh/0.lkh1.tour" ... done
* 118: Cost = 0_3498536, Time = 2.43 sec. 
Writing OUTPUT_TOUR_FILE: "baseline_results/cvrp_lkh/Vrp-Set-X-n280/Vrp-Set-X-n280-lkh/0.lkh1.tour" ... done
* 121: Cost = 0_3494985, Time = 2.45 sec. 
Writing OUTPUT_TOUR_FILE: "baseline_results/cvrp_lkh/Vrp-Set-X-n280/Vrp-Set-X-n280-lkh/0.lkh1.tour" ... done
* 126: Cost = 0_3494919, Time = 2.47 sec. 
Writing OUTPUT_TOUR_FILE: "baseline_results/cvrp_lkh/Vrp-Set-X-n280/Vrp-Set-X-n280-lkh/0.lkh1.tour" ... done
* 131: Cost = 0_3494918, Time = 2.51 sec. 
Writing OUTPUT_TOUR_FILE: "baseline_results/cvrp_lkh/Vrp-Set-X-n280/Vrp-Set-X-n280-lkh/0.lkh1.tour" ... done
* 132: Cost = 0_3494856, Time = 2.52 sec. 
Writing OUTPUT_TOUR_FILE: "baseline_results/cvrp_lkh/Vrp-Set-X-n280/Vrp-Set-X-n280-lkh/0.lkh1.tour" ... done
* 133: Cost = 0_3494491, Time = 2.54 sec. 
Writing OUTPUT_TOUR_FILE: "baseline_results/cvrp_lkh/Vrp-Set-X-n280/Vrp-Set-X-n280-lkh/0.lkh1.tour" ... done
* 143: Cost = 0_3492408, Time = 2.69 sec. 
Writing OUTPUT_TOUR_FILE: "baseline_results/cvrp_lkh/Vrp-Set-X-n280/Vrp-Set-X-n280-lkh/0.lkh1.tour" ... done
* 145: Cost = 0_3492353, Time = 2.79 sec. 
Writing OUTPUT_TOUR_FILE: "baseline_results/cvrp_lkh/Vrp-Set-X-n280/Vrp-Set-X-n280-lkh/0.lkh1.tour" ... done
* 148: Cost = 0_3492317, Time = 2.86 sec. 
Writing OUTPUT_TOUR_FILE: "baseline_results/cvrp_lkh/Vrp-Set-X-n280/Vrp-Set-X-n280-lkh/0.lkh1.tour" ... done
* 156: Cost = 0_3485216, Time = 2.91 sec. 
Writing OUTPUT_TOUR_FILE: "baseline_results/cvrp_lkh/Vrp-Set-X-n280/Vrp-Set-X-n280-lkh/0.lkh1.tour" ... done
* 163: Cost = 0_3482763, Time = 2.98 sec. 
Writing OUTPUT_TOUR_FILE: "baseline_results/cvrp_lkh/Vrp-Set-X-n280/Vrp-Set-X-n280-lkh/0.lkh1.tour" ... done
* 172: Cost = 0_3481353, Time = 3.27 sec. 
Writing OUTPUT_TOUR_FILE: "baseline_results/cvrp_lkh/Vrp-Set-X-n280/Vrp-Set-X-n280-lkh/0.lkh1.tour" ... done
* 177: Cost = 0_3480942, Time = 3.40 sec. 
Writing OUTPUT_TOUR_FILE: "baseline_results/cvrp_lkh/Vrp-Set-X-n280/Vrp-Set-X-n280-lkh/0.lkh1.tour" ... done
* 184: Cost = 0_3480303, Time = 3.48 sec. 
Writing OUTPUT_TOUR_FILE: "baseline_results/cvrp_lkh/Vrp-Set-X-n280/Vrp-Set-X-n280-lkh/0.lkh1.tour" ... done
* 187: Cost = 0_3476663, Time = 3.62 sec. 
Writing OUTPUT_TOUR_FILE: "baseline_results/cvrp_lkh/Vrp-Set-X-n280/Vrp-Set-X-n280-lkh/0.lkh1.tour" ... done
* 193: Cost = 0_3466361, Time = 3.67 sec. 
Writing OUTPUT_TOUR_FILE: "baseline_results/cvrp_lkh/Vrp-Set-X-n280/Vrp-Set-X-n280-lkh/0.lkh1.tour" ... done
* 194: Cost = 0_3460175, Time = 3.68 sec. 
Writing OUTPUT_TOUR_FILE: "baseline_results/cvrp_lkh/Vrp-Set-X-n280/Vrp-Set-X-n280-lkh/0.lkh1.tour" ... done
* 210: Cost = 0_3457894, Time = 4.07 sec. 
Writing OUTPUT_TOUR_FILE: "baseline_results/cvrp_lkh/Vrp-Set-X-n280/Vrp-Set-X-n280-lkh/0.lkh1.tour" ... done
* 220: Cost = 0_3457509, Time = 4.29 sec. 
Writing OUTPUT_TOUR_FILE: "baseline_results/cvrp_lkh/Vrp-Set-X-n280/Vrp-Set-X-n280-lkh/0.lkh1.tour" ... done
* 222: Cost = 0_3457407, Time = 4.29 sec. 
Writing OUTPUT_TOUR_FILE: "baseline_results/cvrp_lkh/Vrp-Set-X-n280/Vrp-Set-X-n280-lkh/0.lkh1.tour" ... done
* 226: Cost = 0_3454718, Time = 4.33 sec. 
Writing OUTPUT_TOUR_FILE: "baseline_results/cvrp_lkh/Vrp-Set-X-n280/Vrp-Set-X-n280-lkh/0.lkh1.tour" ... done
* 230: Cost = 0_3452971, Time = 4.44 sec. 
Writing OUTPUT_TOUR_FILE: "baseline_results/cvrp_lkh/Vrp-Set-X-n280/Vrp-Set-X-n280-lkh/0.lkh1.tour" ... done
* 278: Cost = 0_3452676, Time = 5.67 sec. 
Writing OUTPUT_TOUR_FILE: "baseline_results/cvrp_lkh/Vrp-Set-X-n280/Vrp-Set-X-n280-lkh/0.lkh1.tour" ... done
* 286: Cost = 0_3450996, Time = 5.88 sec. 
Writing OUTPUT_TOUR_FILE: "baseline_results/cvrp_lkh/Vrp-Set-X-n280/Vrp-Set-X-n280-lkh/0.lkh1.tour" ... done
* 289: Cost = 0_3449337, Time = 5.92 sec. 
Writing OUTPUT_TOUR_FILE: "baseline_results/cvrp_lkh/Vrp-Set-X-n280/Vrp-Set-X-n280-lkh/0.lkh1.tour" ... done
* 290: Cost = 0_3447352, Time = 5.93 sec. 
Writing OUTPUT_TOUR_FILE: "baseline_results/cvrp_lkh/Vrp-Set-X-n280/Vrp-Set-X-n280-lkh/0.lkh1.tour" ... done
* 311: Cost = 0_3446933, Time = 6.52 sec. 
Writing OUTPUT_TOUR_FILE: "baseline_results/cvrp_lkh/Vrp-Set-X-n280/Vrp-Set-X-n280-lkh/0.lkh1.tour" ... done
* 316: Cost = 0_3444965, Time = 6.58 sec. 
Writing OUTPUT_TOUR_FILE: "baseline_results/cvrp_lkh/Vrp-Set-X-n280/Vrp-Set-X-n280-lkh/0.lkh1.tour" ... done
* 322: Cost = 0_3444945, Time = 6.70 sec. 
Writing OUTPUT_TOUR_FILE: "baseline_results/cvrp_lkh/Vrp-Set-X-n280/Vrp-Set-X-n280-lkh/0.lkh1.tour" ... done
* 323: Cost = 0_3442129, Time = 6.76 sec. 
Writing OUTPUT_TOUR_FILE: "baseline_results/cvrp_lkh/Vrp-Set-X-n280/Vrp-Set-X-n280-lkh/0.lkh1.tour" ... done
* 335: Cost = 0_3440612, Time = 7.06 sec. 
Writing OUTPUT_TOUR_FILE: "baseline_results/cvrp_lkh/Vrp-Set-X-n280/Vrp-Set-X-n280-lkh/0.lkh1.tour" ... done
* 343: Cost = 0_3434886, Time = 7.13 sec. 
Writing OUTPUT_TOUR_FILE: "baseline_results/cvrp_lkh/Vrp-Set-X-n280/Vrp-Set-X-n280-lkh/0.lkh1.tour" ... done
* 435: Cost = 0_3432552, Time = 9.77 sec. 
Writing OUTPUT_TOUR_FILE: "baseline_results/cvrp_lkh/Vrp-Set-X-n280/Vrp-Set-X-n280-lkh/0.lkh1.tour" ... done
* 445: Cost = 0_3431318, Time = 10.03 sec. 
Writing OUTPUT_TOUR_FILE: "baseline_results/cvrp_lkh/Vrp-Set-X-n280/Vrp-Set-X-n280-lkh/0.lkh1.tour" ... done
* 465: Cost = 0_3428181, Time = 10.54 sec. 
Writing OUTPUT_TOUR_FILE: "baseline_results/cvrp_lkh/Vrp-Set-X-n280/Vrp-Set-X-n280-lkh/0.lkh1.tour" ... done
* 509: Cost = 0_3428174, Time = 11.18 sec. 
Writing OUTPUT_TOUR_FILE: "baseline_results/cvrp_lkh/Vrp-Set-X-n280/Vrp-Set-X-n280-lkh/0.lkh1.tour" ... done
* 565: Cost = 0_3428045, Time = 12.40 sec. 
Writing OUTPUT_TOUR_FILE: "baseline_results/cvrp_lkh/Vrp-Set-X-n280/Vrp-Set-X-n280-lkh/0.lkh1.tour" ... done
* 597: Cost = 0_3427423, Time = 12.81 sec. 
Writing OUTPUT_TOUR_FILE: "baseline_results/cvrp_lkh/Vrp-Set-X-n280/Vrp-Set-X-n280-lkh/0.lkh1.tour" ... done
* 634: Cost = 0_3426972, Time = 13.52 sec. 
Writing OUTPUT_TOUR_FILE: "baseline_results/cvrp_lkh/Vrp-Set-X-n280/Vrp-Set-X-n280-lkh/0.lkh1.tour" ... done
* 642: Cost = 0_3426873, Time = 13.62 sec. 
Writing OUTPUT_TOUR_FILE: "baseline_results/cvrp_lkh/Vrp-Set-X-n280/Vrp-Set-X-n280-lkh/0.lkh1.tour" ... done
* 652: Cost = 0_3426636, Time = 13.78 sec. 
Writing OUTPUT_TOUR_FILE: "baseline_results/cvrp_lkh/Vrp-Set-X-n280/Vrp-Set-X-n280-lkh/0.lkh1.tour" ... done
* 653: Cost = 0_3425769, Time = 13.80 sec. 
Writing OUTPUT_TOUR_FILE: "baseline_results/cvrp_lkh/Vrp-Set-X-n280/Vrp-Set-X-n280-lkh/0.lkh1.tour" ... done
* 654: Cost = 0_3425133, Time = 13.80 sec. 
Writing OUTPUT_TOUR_FILE: "baseline_results/cvrp_lkh/Vrp-Set-X-n280/Vrp-Set-X-n280-lkh/0.lkh1.tour" ... done
* 657: Cost = 0_3424426, Time = 13.82 sec. 
Writing OUTPUT_TOUR_FILE: "baseline_results/cvrp_lkh/Vrp-Set-X-n280/Vrp-Set-X-n280-lkh/0.lkh1.tour" ... done
* 673: Cost = 0_3424347, Time = 14.08 sec. 
Writing OUTPUT_TOUR_FILE: "baseline_results/cvrp_lkh/Vrp-Set-X-n280/Vrp-Set-X-n280-lkh/0.lkh1.tour" ... done
* 676: Cost = 0_3423744, Time = 14.16 sec. 
Writing OUTPUT_TOUR_FILE: "baseline_results/cvrp_lkh/Vrp-Set-X-n280/Vrp-Set-X-n280-lkh/0.lkh1.tour" ... done
* 679: Cost = 0_3423739, Time = 14.22 sec. 
Writing OUTPUT_TOUR_FILE: "baseline_results/cvrp_lkh/Vrp-Set-X-n280/Vrp-Set-X-n280-lkh/0.lkh1.tour" ... done
* 717: Cost = 0_3422847, Time = 15.13 sec. 
Writing OUTPUT_TOUR_FILE: "baseline_results/cvrp_lkh/Vrp-Set-X-n280/Vrp-Set-X-n280-lkh/0.lkh1.tour" ... done
* 751: Cost = 0_3422674, Time = 16.02 sec. 
Writing OUTPUT_TOUR_FILE: "baseline_results/cvrp_lkh/Vrp-Set-X-n280/Vrp-Set-X-n280-lkh/0.lkh1.tour" ... done
* 754: Cost = 0_3422269, Time = 16.06 sec. 
Writing OUTPUT_TOUR_FILE: "baseline_results/cvrp_lkh/Vrp-Set-X-n280/Vrp-Set-X-n280-lkh/0.lkh1.tour" ... done
* 758: Cost = 0_3421961, Time = 16.20 sec. 
Writing OUTPUT_TOUR_FILE: "baseline_results/cvrp_lkh/Vrp-Set-X-n280/Vrp-Set-X-n280-lkh/0.lkh1.tour" ... done
* 1055: Cost = 0_3421080, Time = 22.63 sec. 
Writing OUTPUT_TOUR_FILE: "baseline_results/cvrp_lkh/Vrp-Set-X-n280/Vrp-Set-X-n280-lkh/0.lkh1.tour" ... done
* 1073: Cost = 0_3420597, Time = 23.14 sec. 
Writing OUTPUT_TOUR_FILE: "baseline_results/cvrp_lkh/Vrp-Set-X-n280/Vrp-Set-X-n280-lkh/0.lkh1.tour" ... done
* 1141: Cost = 0_3420353, Time = 24.52 sec. 
Writing OUTPUT_TOUR_FILE: "baseline_results/cvrp_lkh/Vrp-Set-X-n280/Vrp-Set-X-n280-lkh/0.lkh1.tour" ... done
* 1150: Cost = 0_3420329, Time = 24.62 sec. 
Writing OUTPUT_TOUR_FILE: "baseline_results/cvrp_lkh/Vrp-Set-X-n280/Vrp-Set-X-n280-lkh/0.lkh1.tour" ... done
* 1154: Cost = 0_3419372, Time = 24.67 sec. 
Writing OUTPUT_TOUR_FILE: "baseline_results/cvrp_lkh/Vrp-Set-X-n280/Vrp-Set-X-n280-lkh/0.lkh1.tour" ... done
* 1185: Cost = 0_3419269, Time = 25.09 sec. 
Writing OUTPUT_TOUR_FILE: "baseline_results/cvrp_lkh/Vrp-Set-X-n280/Vrp-Set-X-n280-lkh/0.lkh1.tour" ... done
* 1211: Cost = 0_3419008, Time = 25.88 sec. 
Writing OUTPUT_TOUR_FILE: "baseline_results/cvrp_lkh/Vrp-Set-X-n280/Vrp-Set-X-n280-lkh/0.lkh1.tour" ... done
* 1365: Cost = 0_3418413, Time = 28.84 sec. 
Writing OUTPUT_TOUR_FILE: "baseline_results/cvrp_lkh/Vrp-Set-X-n280/Vrp-Set-X-n280-lkh/0.lkh1.tour" ... done
* 1384: Cost = 0_3417167, Time = 29.21 sec. 
Writing OUTPUT_TOUR_FILE: "baseline_results/cvrp_lkh/Vrp-Set-X-n280/Vrp-Set-X-n280-lkh/0.lkh1.tour" ... done
* 1419: Cost = 0_3416364, Time = 30.03 sec. 
Writing OUTPUT_TOUR_FILE: "baseline_results/cvrp_lkh/Vrp-Set-X-n280/Vrp-Set-X-n280-lkh/0.lkh1.tour" ... done
* 1975: Cost = 0_3416275, Time = 43.99 sec. 
Writing OUTPUT_TOUR_FILE: "baseline_results/cvrp_lkh/Vrp-Set-X-n280/Vrp-Set-X-n280-lkh/0.lkh1.tour" ... done
* 2234: Cost = 0_3410504, Time = 50.50 sec. 
Writing OUTPUT_TOUR_FILE: "baseline_results/cvrp_lkh/Vrp-Set-X-n280/Vrp-Set-X-n280-lkh/0.lkh1.tour" ... done
* 2249: Cost = 0_3410473, Time = 50.96 sec. 
Writing OUTPUT_TOUR_FILE: "baseline_results/cvrp_lkh/Vrp-Set-X-n280/Vrp-Set-X-n280-lkh/0.lkh1.tour" ... done
* 2281: Cost = 0_3410303, Time = 51.87 sec. 
Writing OUTPUT_TOUR_FILE: "baseline_results/cvrp_lkh/Vrp-Set-X-n280/Vrp-Set-X-n280-lkh/0.lkh1.tour" ... done
* 2294: Cost = 0_3410074, Time = 52.20 sec. 
Writing OUTPUT_TOUR_FILE: "baseline_results/cvrp_lkh/Vrp-Set-X-n280/Vrp-Set-X-n280-lkh/0.lkh1.tour" ... done
* 2316: Cost = 0_3409356, Time = 52.73 sec. 
Writing OUTPUT_TOUR_FILE: "baseline_results/cvrp_lkh/Vrp-Set-X-n280/Vrp-Set-X-n280-lkh/0.lkh1.tour" ... done
* 2329: Cost = 0_3409342, Time = 53.11 sec. 
Writing OUTPUT_TOUR_FILE: "baseline_results/cvrp_lkh/Vrp-Set-X-n280/Vrp-Set-X-n280-lkh/0.lkh1.tour" ... done
* 2334: Cost = 0_3409157, Time = 53.23 sec. 
Writing OUTPUT_TOUR_FILE: "baseline_results/cvrp_lkh/Vrp-Set-X-n280/Vrp-Set-X-n280-lkh/0.lkh1.tour" ... done
* 2382: Cost = 0_3408441, Time = 54.33 sec. 
Writing OUTPUT_TOUR_FILE: "baseline_results/cvrp_lkh/Vrp-Set-X-n280/Vrp-Set-X-n280-lkh/0.lkh1.tour" ... done
* 2493: Cost = 0_3406935, Time = 57.22 sec. 
Writing OUTPUT_TOUR_FILE: "baseline_results/cvrp_lkh/Vrp-Set-X-n280/Vrp-Set-X-n280-lkh/0.lkh1.tour" ... done
* 2593: Cost = 0_3406526, Time = 59.75 sec. 
Writing OUTPUT_TOUR_FILE: "baseline_results/cvrp_lkh/Vrp-Set-X-n280/Vrp-Set-X-n280-lkh/0.lkh1.tour" ... done
* 2599: Cost = 0_3406300, Time = 59.84 sec. 
Writing OUTPUT_TOUR_FILE: "baseline_results/cvrp_lkh/Vrp-Set-X-n280/Vrp-Set-X-n280-lkh/0.lkh1.tour" ... done
* 3598: Cost = 0_3405165, Time = 89.31 sec. 
Writing OUTPUT_TOUR_FILE: "baseline_results/cvrp_lkh/Vrp-Set-X-n280/Vrp-Set-X-n280-lkh/0.lkh1.tour" ... done
* 3656: Cost = 0_3405156, Time = 90.97 sec. 
Writing OUTPUT_TOUR_FILE: "baseline_results/cvrp_lkh/Vrp-Set-X-n280/Vrp-Set-X-n280-lkh/0.lkh1.tour" ... done
* 3712: Cost = 0_3405067, Time = 92.00 sec. 
Writing OUTPUT_TOUR_FILE: "baseline_results/cvrp_lkh/Vrp-Set-X-n280/Vrp-Set-X-n280-lkh/0.lkh1.tour" ... done
* 5647: Cost = 0_3404853, Time = 142.08 sec. 
Writing OUTPUT_TOUR_FILE: "baseline_results/cvrp_lkh/Vrp-Set-X-n280/Vrp-Set-X-n280-lkh/0.lkh1.tour" ... done
* 5661: Cost = 0_3404829, Time = 142.41 sec. 
Writing OUTPUT_TOUR_FILE: "baseline_results/cvrp_lkh/Vrp-Set-X-n280/Vrp-Set-X-n280-lkh/0.lkh1.tour" ... done
* 5710: Cost = 0_3404173, Time = 143.57 sec. 
Writing OUTPUT_TOUR_FILE: "baseline_results/cvrp_lkh/Vrp-Set-X-n280/Vrp-Set-X-n280-lkh/0.lkh1.tour" ... done
* 5776: Cost = 0_3403396, Time = 145.21 sec. 
Writing OUTPUT_TOUR_FILE: "baseline_results/cvrp_lkh/Vrp-Set-X-n280/Vrp-Set-X-n280-lkh/0.lkh1.tour" ... done
* 5794: Cost = 0_3403019, Time = 145.66 sec. 
Writing OUTPUT_TOUR_FILE: "baseline_results/cvrp_lkh/Vrp-Set-X-n280/Vrp-Set-X-n280-lkh/0.lkh1.tour" ... done
* 5860: Cost = 0_3402118, Time = 147.00 sec. 
Writing OUTPUT_TOUR_FILE: "baseline_results/cvrp_lkh/Vrp-Set-X-n280/Vrp-Set-X-n280-lkh/0.lkh1.tour" ... done
* 5865: Cost = 0_3400954, Time = 147.05 sec. 
Writing OUTPUT_TOUR_FILE: "baseline_results/cvrp_lkh/Vrp-Set-X-n280/Vrp-Set-X-n280-lkh/0.lkh1.tour" ... done
* 5958: Cost = 0_3400865, Time = 149.82 sec. 
Writing OUTPUT_TOUR_FILE: "baseline_results/cvrp_lkh/Vrp-Set-X-n280/Vrp-Set-X-n280-lkh/0.lkh1.tour" ... done
* 6030: Cost = 0_3400584, Time = 151.75 sec. 
Writing OUTPUT_TOUR_FILE: "baseline_results/cvrp_lkh/Vrp-Set-X-n280/Vrp-Set-X-n280-lkh/0.lkh1.tour" ... done
* 6356: Cost = 0_3398345, Time = 160.75 sec. 
Writing OUTPUT_TOUR_FILE: "baseline_results/cvrp_lkh/Vrp-Set-X-n280/Vrp-Set-X-n280-lkh/0.lkh1.tour" ... done
Population:
  1: 0_3398345
Run 1: Cost = 0_3398345, Time = 260.25 sec. 

Successes/Runs = 0/1 
Cost.min = 3398345, Cost.avg = 3398345.00, Cost.max = 3398345
Gap.min = 0.0000%, Gap.avg = 0.0000%, Gap.max = 0.0000%
Penalty.min = 0, Penalty.avg = 0.00, Penalty.max = 0
Trials.min = 10000, Trials.avg = 10000.0, Trials.max = 10000
Time.min = 260.25 sec., Time.avg = 260.25 sec., Time.max = 260.25 sec.
Time.total = 260.34 sec.
  Size.min = 6, Size.max = 35, Penalty = 0
  Cost.min = 60728, Cost.max = 292797, Cost.sum = 3398345
Best CVRP solution:
  Cost = 0_3398345

