experiment/data/lkh-res/Vrp-Set-X-n280/Vrp-Set-X-n280-lkh/0.lkh1.tour
NAME : 0.3398345.tour
COMMENT : Length = 3398345
COMMENT : Found by LKH-3 [Keld Helsgaun] Tue Apr  9 05:23:39 2024
TYPE : TOUR
DIMENSION : 296
TOUR_SECTION
1
239
192
141
2
143
89
25
247
254
234
194
284
155
162
27
213
230
124
82
47
212
92
111
173
260
86
108
193
208
205
125
256
110
163
99
166
268
127
95
243
109
149
250
160
289
62
265
69
179
237
221
106
131
186
17
113
123
33
22
277
190
291
259
216
214
91
13
85
114
87
103
79
116
144
182
196
202
228
169
188
227
287
134
255
233
30
150
9
18
207
152
293
81
177
5
93
204
242
15
266
181
285
90
153
138
36
76
128
121
184
37
168
7
248
40
118
42
57
132
45
75
217
290
253
246
66
6
4
245
77
26
296
148
159
16
145
20
195
282
61
224
199
161
183
67
133
44
167
78
10
71
206
276
102
261
158
269
211
52
292
129
84
244
11
219
21
70
286
64
68
88
14
23
249
139
274
97
294
126
100
187
35
262
142
38
275
28
273
151
19
130
270
272
24
94
43
281
267
112
240
58
29
147
189
96
209
63
48
191
83
185
252
172
8
238
140
178
180
49
146
119
46
171
295
154
263
215
176
122
115
135
56
117
278
257
107
223
3
105
226
50
72
271
39
198
288
201
203
200
251
136
31
165
258
235
80
225
120
236
73
51
34
280
60
59
41
65
220
74
279
170
222
218
101
175
53
197
54
231
229
156
283
32
241
104
210
174
12
232
164
98
157
55
137
264
-1
EOF
